50
    23    50    58    44    33     9    12    20    88    93    58    81    58    31    36    88    82    43     4    42    60    37    34    86    62    13    14     4    21    63    50    17    36    68    59    92    72    99    78    31    60    19    58    82    96    82    64    29    42    31
     6     2     9     8     2     7    10     7     8     7     5    10    10     8    10     3     2     4     4     5     8     5     4     6    10    10     7    10     3     4    10     1    10    10    10     7     2     8     2     8     3     4     4     6     3     2     8     4     6     4
   798   328   991   727   251   105     2   759    20   177   603   615   387   108   159   961   448    56   201    27   411   614   935   229   366   148   273   234   569   660   386   571   222   104   709   720   761   258   487   706   621    44   805   190   539   390   112    71   318   558
